1000
125 125
1 100 227
2 100 263
3 100 480
4 100 114
5 100 910
6 100 563
7 100 702
8 100 698
9 100 56
10 100 659
11 99 324
12 99 613
13 99 867
14 99 280
15 99 332
16 99 38
17 99 895
18 99 908
19 98 810
20 98 854
21 98 748
22 98 592
23 98 479
24 98 503
25 98 421
26 98 926
27 97 356
28 97 773
29 97 47
30 97 566
31 97 767
32 97 64
33 97 824
34 97 638
35 97 528
36 97 761
37 97 748
38 97 245
39 96 882
40 96 405
41 96 158
42 96 822
43 96 925
44 96 153
45 96 290
46 96 187
47 96 303
48 96 704
49 96 534
50 96 990
51 96 668
52 95 526
53 95 968
54 95 75
55 95 411
56 95 392
57 95 121
58 95 650
59 95 946
60 95 264
61 95 93
62 95 18
63 94 145
64 94 573
65 94 852
66 94 257
67 94 748
68 94 827
69 94 270
70 94 13
71 94 317
72 94 53
73 93 645
74 93 809
75 93 405
76 93 177
77 93 815
78 93 417
79 93 222
80 93 571
81 93 924
82 93 908
83 93 407
84 93 63
85 93 998
86 92 885
87 92 959
88 92 355
89 92 312
90 92 987
91 92 653
92 92 617
93 92 353
94 92 45
95 92 604
96 91 919
97 91 58
98 91 845
99 91 774
100 91 577
101 91 647
102 91 233
103 91 596
104 91 450
105 91 625
106 91 914
107 91 266
108 90 320
109 90 541
110 90 484
111 90 434
112 90 122
113 90 329
114 90 794
115 89 680
116 89 764
117 89 997
118 89 825
119 89 679
120 89 473
121 89 499
122 89 365
123 89 284
124 89 843
125 89 724
126 88 833
127 88 161
128 88 53
129 88 246
130 88 394
131 88 502
132 88 362
133 88 70
134 88 274
135 87 563
136 87 519
137 87 340
138 87 198
139 87 855
140 87 130
141 87 40
142 87 718
143 87 179
144 87 841
145 87 96
146 87 181
147 87 787
148 87 597
149 87 169
150 87 608
151 87 792
152 86 676
153 86 110
154 86 358
155 86 751
156 86 573
157 86 707
158 86 822
159 86 712
160 86 802
161 86 804
162 86 858
163 86 39
164 85 977
165 85 927
166 85 758
167 85 658
168 85 482
169 85 599
170 85 682
171 85 926
172 85 654
173 84 640
174 84 234
175 84 608
176 84 716
177 83 521
178 83 20
179 83 552
180 83 448
181 83 68
182 83 595
183 83 70
184 83 292
185 83 893
186 83 972
187 83 909
188 83 343
189 83 199
190 83 634
191 82 637
192 82 532
193 82 18
194 82 128
195 82 478
196 82 538
197 82 895
198 82 486
199 82 546
200 82 942
201 82 431
202 82 544
203 82 323
204 82 40
205 82 867
206 82 657
207 81 482
208 81 283
209 81 9
210 81 678
211 81 470
212 81 65
213 81 660
214 81 13
215 81 995
216 81 510
217 81 92
218 80 800
219 80 207
220 80 726
221 80 956
222 79 231
223 79 552
224 79 403
225 79 106
226 79 306
227 79 728
228 79 59
229 79 858
230 79 980
231 79 355
232 79 540
233 78 639
234 78 861
235 78 892
236 78 324
237 78 231
238 78 890
239 77 598
240 77 455
241 77 808
242 77 9
243 77 160
244 77 585
245 77 931
246 77 341
247 77 609
248 77 480
249 77 39
250 76 720
251 76 821
252 76 798
253 76 78
254 76 120
255 76 395
256 76 159
257 76 244
258 76 593
259 76 637
260 76 719
261 76 171
262 76 911
263 76 349
264 76 33
265 75 619
266 75 934
267 75 363
268 75 223
269 75 231
270 75 163
271 75 762
272 75 470
273 75 284
274 75 294
275 75 679
276 75 736
277 75 528
278 75 744
279 75 905
280 74 924
281 74 166
282 74 388
283 74 636
284 74 581
285 74 757
286 74 542
287 74 4
288 74 932
289 74 387
290 74 294
291 74 357
292 74 209
293 74 695
294 73 65
295 73 488
296 73 467
297 73 590
298 73 515
299 73 604
300 73 532
301 73 497
302 73 942
303 73 248
304 73 592
305 72 893
306 72 210
307 72 341
308 72 31
309 72 442
310 72 347
311 72 746
312 72 425
313 72 852
314 71 880
315 71 493
316 71 31
317 71 451
318 71 503
319 71 680
320 70 246
321 70 229
322 70 974
323 70 104
324 70 902
325 70 910
326 70 472
327 70 514
328 69 538
329 69 821
330 69 487
331 69 897
332 69 843
333 69 892
334 69 827
335 69 323
336 69 902
337 69 56
338 69 664
339 69 145
340 69 288
341 69 547
342 69 827
343 68 505
344 68 964
345 68 768
346 68 218
347 68 65
348 68 123
349 68 652
350 68 948
351 68 324
352 68 729
353 68 389
354 68 643
355 68 272
356 67 739
357 67 655
358 67 484
359 67 662
360 67 305
361 67 542
362 67 954
363 67 508
364 67 881
365 67 495
366 66 480
367 66 706
368 66 66
369 66 703
370 66 13
371 66 888
372 66 617
373 66 498
374 66 336
375 66 354
376 66 140
377 65 985
378 65 856
379 65 6
380 65 386
381 65 300
382 65 992
383 65 456
384 65 697
385 64 709
386 64 2
387 64 216
388 64 36
389 64 540
390 64 165
391 64 963
392 64 983
393 64 524
394 64 592
395 64 213
396 64 844
397 63 915
398 63 346
399 63 669
400 63 310
401 63 185
402 63 416
403 63 609
404 63 346
405 63 933
406 63 455
407 63 838
408 63 963
409 63 594
410 63 724
411 62 809
412 62 178
413 62 527
414 62 209
415 62 602
416 62 939
417 62 533
418 62 190
419 62 981
420 62 360
421 61 693
422 61 572
423 61 88
424 61 967
425 61 482
426 61 911
427 61 733
428 61 405
429 61 356
430 61 260
431 61 865
432 61 757
433 61 434
434 61 835
435 61 727
436 60 464
437 60 632
438 60 213
439 60 473
440 60 782
441 60 718
442 60 757
443 60 229
444 60 927
445 60 320
446 60 761
447 60 974
448 60 930
449 60 456
450 60 992
451 60 239
452 60 165
453 59 569
454 59 540
455 59 923
456 59 903
457 59 59
458 59 798
459 59 864
460 59 686
461 58 340
462 58 416
463 58 439
464 58 427
465 58 399
466 58 991
467 58 236
468 58 156
469 58 172
470 58 381
471 57 328
472 57 974
473 57 397
474 57 745
475 57 241
476 57 939
477 57 706
478 57 980
479 57 418
480 57 706
481 57 890
482 57 275
483 57 454
484 56 774
485 56 80
486 56 561
487 56 499
488 56 392
489 56 903
490 56 656
491 56 164
492 56 825
493 55 695
494 55 38
495 55 245
496 55 621
497 55 724
498 55 894
499 55 780
500 55 337
501 55 372
502 55 259
503 55 936
504 55 950
505 55 426
506 54 660
507 54 937
508 54 882
509 54 945
510 54 415
511 54 713
512 54 721
513 54 261
514 53 224
515 53 170
516 53 719
517 53 464
518 53 965
519 53 615
520 53 67
521 53 333
522 53 558
523 53 186
524 53 970
525 52 726
526 52 232
527 52 198
528 52 750
529 52 37
530 52 822
531 52 32
532 52 517
533 52 83
534 51 998
535 51 788
536 51 52
537 51 654
538 51 426
539 51 753
540 51 896
541 51 475
542 51 307
543 51 69
544 50 237
545 50 573
546 50 845
547 50 952
548 50 375
549 50 135
550 50 5
551 50 319
552 50 799
553 50 990
554 49 404
555 49 858
556 49 693
557 49 323
558 49 466
559 49 969
560 49 989
561 49 109
562 49 454
563 49 209
564 49 447
565 49 740
566 49 650
567 49 515
568 49 324
569 49 864
570 49 274
571 49 213
572 48 470
573 48 357
574 48 312
575 48 212
576 48 600
577 48 815
578 48 990
579 48 114
580 48 144
581 48 548
582 47 9
583 47 55
584 47 202
585 47 666
586 47 432
587 47 892
588 47 777
589 47 464
590 47 794
591 47 252
592 46 413
593 46 946
594 46 724
595 46 855
596 46 796
597 46 500
598 46 108
599 46 863
600 46 186
601 46 955
602 46 500
603 46 462
604 46 520
605 46 313
606 46 104
607 45 239
608 45 140
609 45 408
610 45 362
611 45 249
612 45 623
613 45 216
614 44 519
615 44 821
616 44 489
617 44 513
618 44 363
619 44 842
620 44 718
621 44 797
622 44 611
623 43 575
624 43 499
625 43 145
626 43 732
627 43 117
628 43 998
629 43 195
630 43 521
631 43 785
632 43 954
633 43 61
634 43 611
635 43 583
636 43 868
637 42 199
638 42 267
639 42 739
640 42 317
641 42 252
642 42 536
643 42 955
644 42 778
645 42 74
646 41 494
647 41 767
648 41 820
649 41 262
650 41 943
651 41 375
652 41 71
653 41 326
654 41 693
655 41 771
656 41 862
657 41 161
658 40 433
659 40 79
660 40 441
661 40 585
662 40 344
663 40 537
664 40 518
665 40 31
666 40 316
667 40 332
668 39 799
669 39 980
670 39 879
671 39 454
672 39 358
673 39 777
674 39 990
675 39 452
676 39 331
677 39 993
678 38 953
679 38 149
680 38 719
681 38 498
682 38 356
683 38 985
684 38 61
685 38 59
686 38 420
687 38 159
688 38 366
689 38 648
690 38 346
691 37 282
692 37 81
693 37 22
694 37 0
695 37 324
696 37 328
697 37 9
698 37 653
699 37 761
700 37 96
701 37 233
702 36 6
703 36 733
704 36 289
705 36 184
706 36 917
707 36 239
708 36 443
709 36 185
710 36 632
711 36 988
712 36 352
713 35 291
714 35 312
715 35 79
716 35 713
717 35 435
718 35 715
719 35 241
720 35 788
721 35 438
722 35 605
723 35 934
724 34 189
725 34 207
726 34 500
727 34 681
728 34 551
729 34 783
730 34 58
731 34 849
732 34 711
733 34 90
734 34 758
735 34 289
736 34 470
737 33 585
738 33 670
739 33 406
740 33 779
741 33 794
742 33 622
743 33 410
744 33 283
745 33 220
746 33 248
747 33 932
748 33 435
749 33 864
750 33 73
751 33 996
752 33 785
753 32 897
754 32 438
755 32 174
756 32 723
757 32 159
758 32 533
759 32 41
760 32 558
761 32 328
762 32 314
763 32 813
764 32 3
765 31 17
766 31 770
767 31 32
768 31 979
769 31 344
770 31 565
771 31 392
772 31 124
773 31 872
774 31 437
775 31 655
776 31 409
777 31 515
778 30 396
779 30 84
780 30 388
781 30 875
782 30 677
783 30 375
784 30 103
785 30 732
786 30 813
787 30 262
788 29 879
789 29 609
790 29 99
791 29 469
792 29 628
793 29 292
794 29 700
795 29 390
796 29 434
797 29 106
798 29 751
799 29 409
800 28 676
801 28 361
802 28 536
803 28 174
804 28 385
805 28 262
806 28 835
807 28 667
808 28 279
809 28 540
810 28 125
811 28 392
812 28 949
813 28 134
814 27 818
815 27 111
816 27 458
817 27 608
818 27 255
819 27 262
820 27 760
821 27 371
822 27 311
823 27 48
824 27 829
825 27 678
826 26 629
827 26 437
828 26 86
829 26 944
830 26 449
831 26 554
832 26 69
833 25 286
834 25 909
835 25 281
836 25 2
837 25 453
838 25 8
839 25 241
840 25 520
841 25 736
842 25 461
843 25 477
844 25 664
845 25 451
846 25 802
847 24 187
848 24 162
849 24 398
850 24 91
851 24 974
852 24 419
853 24 340
854 24 579
855 24 477
856 23 551
857 23 927
858 23 516
859 23 761
860 23 727
861 23 703
862 23 866
863 23 571
864 23 357
865 23 977
866 23 784
867 23 608
868 23 377
869 22 347
870 22 612
871 22 745
872 22 947
873 22 427
874 22 465
875 22 808
876 22 501
877 22 766
878 21 273
879 21 452
880 21 830
881 21 54
882 21 998
883 21 626
884 21 22
885 21 122
886 21 362
887 21 678
888 21 661
889 21 324
890 21 331
891 21 305
892 20 578
893 20 441
894 20 717
895 20 733
896 20 251
897 20 125
898 20 447
899 20 507
900 20 525
901 20 660
902 20 67
903 20 659
904 20 403
905 20 89
906 20 622
907 19 36
908 19 330
909 19 619
910 19 40
911 19 254
912 19 326
913 18 281
914 18 97
915 18 757
916 18 526
917 18 875
918 18 919
919 18 95
920 18 470
921 18 315
922 18 563
923 18 873
924 18 888
925 17 240
926 17 0
927 17 731
928 17 455
929 17 906
930 17 364
931 17 205
932 17 610
933 17 227
934 17 58
935 17 380
936 17 360
937 17 81
938 17 772
939 17 125
940 17 984
941 17 69
942 16 130
943 16 103
944 16 588
945 16 278
946 16 100
947 16 453
948 16 403
949 16 638
950 16 600
951 16 897
952 16 418
953 15 494
954 15 982
955 15 317
956 15 917
957 15 936
958 15 709
959 15 939
960 15 1
961 15 932
962 15 415
963 15 391
964 14 609
965 14 664
966 14 570
967 14 125
968 14 0
969 14 408
970 14 873
971 14 352
972 14 879
973 14 766
974 14 26
975 14 817
976 14 588
977 14 860
978 14 918
979 14 828
980 14 96
981 14 372
982 14 397
983 13 37
984 13 561
985 13 955
986 13 457
987 13 996
988 13 996
989 13 318
990 13 714
991 13 201
992 13 488
993 12 848
994 12 451
995 12 66
996 12 318
997 12 425
998 12 598
999 12 803
1000 12 501
